2.dat
#Data section
data;

set PRODUCTOS := A B C;
set EQUIPOS := eq1 eq2 eq3 ;

param UTILIZA: A B C:=
eq1  0.8 0.8 0.3
eq2  0.6 1.2 0.0
eq3  0.6 1.0 0.6;
param DISP :=
eq1 160
eq2 180
eq3 110;
param VENTA :=
A 50
B 40
C 30;
param TIENE_DEM_MAX :=
A 1
B 1
C 0;
param DEM_MAX :=
A 100
B 120
C 0;
param TIENE_DEM_MIN :=
A 0
B 1
C 0;
param DEM_MIN :=
A 0
B 80
C 0;
end;
